c uprop, v00.0, 
c reading from data/prog547.c.cnf
c done reading: 0.002823
p cnf 143 656
-48 -69 0
-48 -65 0
48 65 69 0
-42 65 69 0
-42 -65 -69 0
42 65 -69 0
42 -65 69 0
48 -60 0
-58 -60 0
-48 58 60 0
-48 -53 58 0
48 -53 -58 0
48 53 58 0
-48 53 -58 0
-49 60 0
-46 -49 0
46 49 -60 0
-44 46 -60 0
-44 -46 60 0
44 46 60 0
44 -46 -60 0
-43 49 0
-40 -43 0
40 43 -49 0
40 -49 -67 0
-40 49 -67 0
40 49 67 0
-40 -49 67 0
43 -71 0
-62 -71 0
-43 62 71 0
-43 62 -72 0
43 -62 -72 0
43 62 72 0
-43 -62 72 0
71 -73 0
-55 -73 0
55 -71 73 0
55 -71 -74 0
-55 71 -74 0
55 71 74 0
-55 -71 74 0
73 -75 0
-51 -75 0
51 -73 75 0
51 -73 -76 0
-51 73 -76 0
51 73 76 0
-51 -73 76 0
58 -77 0
69 -77 0
-58 -69 77 0
-58 -69 -78 0
58 69 -78 0
-58 69 78 0
58 -69 78 0
-46 -65 79 0
-46 -77 79 0
-65 -77 79 0
46 65 -79 0
46 77 -79 0
65 77 -79 0
46 -79 -80 0
65 -79 -80 0
77 -79 -80 0
-46 79 80 0
-65 79 80 0
-77 79 80 0
-46 -65 -77 80 0
46 65 77 -80 0
-40 -58 81 0
-40 -79 81 0
-58 -79 81 0
40 58 -81 0
40 79 -81 0
58 79 -81 0
40 -81 -82 0
58 -81 -82 0
79 -81 -82 0
-40 81 82 0
-58 81 82 0
-79 81 82 0
-40 -58 -79 82 0
40 58 79 -82 0
-46 -62 83 0
-62 -81 83 0
-46 -81 83 0
46 62 -83 0
62 81 -83 0
46 81 -83 0
-38 62 -83 0
-38 46 -83 0
-38 81 -83 0
38 -62 83 0
38 -46 83 0
38 -81 83 0
38 -46 -62 -81 0
-38 46 62 81 0
37 -40 -55 0
37 -55 -83 0
37 -40 -83 0
-37 40 55 0
-37 55 83 0
-37 40 83 0
-36 -37 55 0
-36 -37 40 0
-36 -37 83 0
36 37 -55 0
36 37 -40 0
36 37 -83 0
36 -40 -55 -83 0
-36 40 55 83 0
35 -51 -62 0
35 -37 -51 0
35 -37 -62 0
-35 51 62 0
-35 37 51 0
-35 37 62 0
-34 -35 51 0
-34 -35 62 0
-34 -35 37 0
34 35 -51 0
34 35 -62 0
34 35 -37 0
34 -37 -51 -62 0
-34 37 51 62 0
-33 55 0
-33 35 0
33 -35 -55 0
-35 -55 -68 0
35 55 -68 0
35 -55 68 0
-35 55 68 0
51 -64 0
33 -64 0
-33 -51 64 0
-33 -51 -57 0
33 51 -57 0
33 -51 57 0
-33 51 57 0
-45 80 0
-45 69 0
45 -69 -80 0
-39 -69 -80 0
-39 69 80 0
39 69 -80 0
39 -69 80 0
61 -65 -82 0
-45 61 -82 0
-45 61 -65 0
-61 65 82 0
45 -61 82 0
45 -61 65 0
-54 -61 82 0
-54 -61 65 0
45 -54 -61 0
54 61 -82 0
54 61 -65 0
-45 54 61 0
-45 54 -65 -82 0
45 -54 65 82 0
-38 50 -58 0
-38 50 -61 0
50 -58 -61 0
38 -50 58 0
38 -50 61 0
-50 58 61 0
-32 38 -50 0
-32 -50 58 0
-32 -50 61 0
32 -38 50 0
32 50 -58 0
32 50 -61 0
32 -38 -58 -61 0
-32 38 58 61 0
31 -36 -46 0
31 -36 -50 0
31 -46 -50 0
-31 36 46 0
-31 36 50 0
-31 46 50 0
-30 -31 36 0
-30 -31 46 0
-30 -31 50 0
30 31 -36 0
30 31 -46 0
30 31 -50 0
30 -36 -46 -50 0
-30 36 46 50 0
29 -34 -40 0
29 -31 -34 0
29 -31 -40 0
-29 34 40 0
-29 31 34 0
-29 31 40 0
-28 -29 34 0
-28 -29 40 0
-28 -29 31 0
28 29 -34 0
28 29 -40 0
28 29 -31 0
28 -31 -34 -40 0
-28 31 34 40 0
27 -62 -68 0
27 -29 -68 0
27 -29 -62 0
-27 62 68 0
-27 29 68 0
-27 29 62 0
-26 -27 68 0
-26 -27 62 0
-26 -27 29 0
26 27 -68 0
26 27 -62 0
26 27 -29 0
26 -29 -62 -68 0
-26 29 62 68 0
25 -55 -57 0
25 -27 -57 0
25 -27 -55 0
-25 55 57 0
-25 27 57 0
-25 27 55 0
-24 -25 57 0
-24 -25 55 0
-24 -25 27 0
24 25 -57 0
24 25 -55 0
24 25 -27 0
24 -27 -55 -57 0
-24 27 55 57 0
23 -51 -64 0
23 -25 -64 0
23 -25 -51 0
-23 51 64 0
-23 25 64 0
-23 25 51 0
-22 -23 64 0
-22 -23 51 0
-22 -23 25 0
22 23 -64 0
22 23 -51 0
22 23 -25 0
22 -25 -51 -64 0
-22 25 51 64 0
-21 -69 0
-21 -65 0
21 65 69 0
-20 65 69 0
-20 -65 -69 0
20 65 -69 0
20 -65 69 0
-19 21 0
-19 -78 0
19 -21 78 0
-18 -21 78 0
-18 21 -78 0
18 21 78 0
18 -21 -78 0
-17 19 0
-17 -39 0
17 -19 39 0
-19 39 -84 0
19 -39 -84 0
19 39 84 0
-19 -39 84 0
17 -85 0
-54 -85 0
-17 54 85 0
-17 54 -86 0
17 -54 -86 0
17 54 86 0
-17 -54 86 0
85 -87 0
-32 -87 0
32 -85 87 0
32 -85 -88 0
-32 85 -88 0
32 85 88 0
-32 -85 88 0
87 -89 0
-30 -89 0
30 -87 89 0
30 -87 -90 0
-30 87 -90 0
30 87 90 0
-30 -87 90 0
89 -91 0
-28 -91 0
28 -89 91 0
28 -89 -92 0
-28 89 -92 0
28 89 92 0
-28 -89 92 0
91 -93 0
-26 -93 0
26 -91 93 0
26 -91 -94 0
-26 91 -94 0
26 91 94 0
-26 -91 94 0
93 -95 0
-24 -95 0
24 -93 95 0
24 -93 -96 0
-24 93 -96 0
24 93 96 0
-24 -93 96 0
95 -97 0
-22 -97 0
22 -95 97 0
22 -95 -98 0
-22 95 -98 0
22 95 98 0
-22 -95 98 0
97 -99 0
-23 -99 0
23 -97 99 0
23 -97 -100 0
-23 97 -100 0
23 97 100 0
-23 -97 100 0
-101 -103 0
101 103 0
-104 -106 0
104 106 0
-107 -109 0
107 109 0
-110 -112 0
110 112 0
-113 -115 0
113 115 0
-116 -118 0
116 118 0
-119 -121 0
119 121 0
101 -122 0
-101 122 0
-101 -123 0
101 123 0
-101 -104 124 0
-104 -122 124 0
-101 -122 124 0
101 104 -124 0
104 122 -124 0
101 122 -124 0
104 -124 -125 0
101 -124 -125 0
122 -124 -125 0
-104 124 125 0
-101 124 125 0
-122 124 125 0
-101 -104 -122 125 0
101 104 122 -125 0
-104 -107 126 0
-107 -124 126 0
-104 -124 126 0
104 107 -126 0
107 124 -126 0
104 124 -126 0
107 -126 -127 0
104 -126 -127 0
124 -126 -127 0
-107 126 127 0
-104 126 127 0
-124 126 127 0
-104 -107 -124 127 0
104 107 124 -127 0
-107 -110 128 0
-110 -126 128 0
-107 -126 128 0
107 110 -128 0
110 126 -128 0
107 126 -128 0
110 -128 -129 0
107 -128 -129 0
126 -128 -129 0
-110 128 129 0
-107 128 129 0
-126 128 129 0
-107 -110 -126 129 0
107 110 126 -129 0
-110 -113 130 0
-113 -128 130 0
-110 -128 130 0
110 113 -130 0
113 128 -130 0
110 128 -130 0
113 -130 -131 0
110 -130 -131 0
128 -130 -131 0
-113 130 131 0
-110 130 131 0
-128 130 131 0
-110 -113 -128 131 0
110 113 128 -131 0
-113 -116 132 0
-116 -130 132 0
-113 -130 132 0
113 116 -132 0
116 130 -132 0
113 130 -132 0
116 -132 -133 0
113 -132 -133 0
130 -132 -133 0
-116 132 133 0
-113 132 133 0
-130 132 133 0
-113 -116 -130 133 0
113 116 130 -133 0
-116 -119 134 0
-119 -132 134 0
-116 -132 134 0
116 119 -134 0
119 132 -134 0
116 132 -134 0
-70 119 -134 0
-70 116 -134 0
-70 132 -134 0
70 -119 134 0
70 -116 134 0
70 -132 134 0
70 -116 -119 -132 0
-70 116 119 132 0
-66 119 0
-66 134 0
66 -119 -134 0
-59 -119 -134 0
-59 119 134 0
59 -119 134 0
59 119 -134 0
-47 125 0
47 -125 0
-41 -125 0
41 125 0
63 -101 -127 0
-47 63 -127 0
-47 63 -101 0
-63 101 127 0
47 -63 127 0
47 -63 101 0
-56 -63 127 0
-56 -63 101 0
47 -56 -63 0
56 63 -127 0
56 63 -101 0
-47 56 63 0
-47 56 -101 -127 0
47 -56 101 127 0
52 -104 -129 0
52 -63 -129 0
52 -63 -104 0
-52 104 129 0
-52 63 129 0
-52 63 104 0
-52 129 -135 0
-52 104 -135 0
-52 63 -135 0
52 -129 135 0
52 -104 135 0
52 -63 135 0
-63 -104 -129 135 0
63 104 129 -135 0
102 -107 -131 0
-52 102 -131 0
-52 102 -107 0
-102 107 131 0
52 -102 131 0
52 -102 107 0
-102 -105 131 0
-102 -105 107 0
52 -102 -105 0
102 105 -131 0
102 105 -107 0
-52 102 105 0
-52 105 -107 -131 0
52 -105 107 131 0
108 -110 -133 0
-102 108 -133 0
-102 108 -110 0
-108 110 133 0
102 -108 133 0
102 -108 110 0
-108 -111 133 0
-108 110 -111 0
102 -108 -111 0
108 111 -133 0
108 -110 111 0
-102 108 111 0
-102 -110 111 -133 0
102 110 -111 133 0
-70 -113 114 0
-70 -108 114 0
-108 -113 114 0
70 113 -114 0
70 108 -114 0
108 113 -114 0
70 -114 -117 0
113 -114 -117 0
108 -114 -117 0
-70 114 117 0
-113 114 117 0
-108 114 117 0
-70 -108 -113 117 0
70 108 113 -117 0
-59 -116 120 0
-59 -114 120 0
-114 -116 120 0
59 116 -120 0
59 114 -120 0
114 116 -120 0
59 -120 -136 0
116 -120 -136 0
114 -120 -136 0
-59 120 136 0
-116 120 136 0
-114 120 136 0
-59 -114 -116 136 0
59 114 116 -136 0
-66 -119 137 0
-66 -120 137 0
-119 -120 137 0
66 119 -137 0
66 120 -137 0
119 120 -137 0
66 -137 -138 0
119 -137 -138 0
120 -137 -138 0
-66 137 138 0
-119 137 138 0
-120 137 138 0
-66 -119 -120 138 0
66 119 120 -138 0
-123 -139 0
123 139 0
-41 -140 0
41 140 0
-56 -141 0
56 141 0
-135 -142 0
135 142 0
-105 -143 0
105 143 0
-16 -111 0
16 111 0
-15 -117 0
15 117 0
-14 -136 0
14 136 0
-13 -138 0
13 138 0
-12 -137 0
12 137 0
-11 69 0
-11 123 0
11 -69 -123 0
-69 -123 0
69 123 0
10 -41 -65 0
10 -11 -65 0
10 -11 -41 0
-10 41 65 0
-10 11 65 0
-10 11 41 0
-10 65 0
-10 41 0
-10 11 0
11 41 65 0
9 -56 -78 0
9 -10 -78 0
9 -10 -56 0
-9 56 78 0
-9 10 78 0
-9 10 56 0
9 -78 0
9 -56 0
9 -10 0
-10 -56 -78 0
8 -39 -135 0
8 -9 -39 0
8 -9 -135 0
-8 39 135 0
-8 9 39 0
-8 9 135 0
-8 39 0
-8 135 0
-8 9 0
9 39 135 0
7 -54 -105 0
7 -8 -54 0
7 -8 -105 0
-7 54 105 0
-7 8 54 0
-7 8 105 0
-7 54 0
-7 105 0
-7 8 0
8 54 105 0
6 -32 -111 0
6 -7 -32 0
6 -7 -111 0
-6 32 111 0
-6 7 32 0
-6 7 111 0
6 -32 0
6 -111 0
6 -7 0
-7 -32 -111 0
5 -30 -117 0
5 -6 -30 0
5 -6 -117 0
-5 30 117 0
-5 6 30 0
-5 6 117 0
5 -30 0
5 -117 0
5 -6 0
-6 -30 -117 0
4 -28 -136 0
4 -5 -28 0
4 -5 -136 0
-4 28 136 0
-4 5 28 0
-4 5 136 0
4 -28 0
4 -136 0
4 -5 0
-5 -28 -136 0
3 -26 -138 0
3 -4 -26 0
3 -4 -138 0
-3 26 138 0
-3 4 26 0
-3 4 138 0
3 -26 0
3 -138 0
3 -4 0
-4 -26 -138 0
2 -24 -137 0
2 -3 -24 0
2 -3 -137 0
-2 24 137 0
-2 3 24 0
-2 3 137 0
2 -24 0
2 -137 0
2 -3 0
-3 -24 -137 0
-1 22 0
-1 2 0
1 -2 -22 0
2 -22 0
-2 22 0
-1 -23 0
1 -23 0
-1 23 0
